unknown
(model
; cardinality of BoundSet is 3
(declare-sort BoundSet 0)
; rep: @uc_BoundSet_0
; rep: @uc_BoundSet_1
; rep: @uc_BoundSet_2
; cardinality of UnboundSet is 1
(declare-sort UnboundSet 0)
(declare-fun groundTerm_4 () UnboundSet)
(define-fun IsSevere ((BOUND_VARIABLE_509 BoundSet)) Bool (ite (= @uc_BoundSet_2 BOUND_VARIABLE_509) true (= @uc_BoundSet_0 BOUND_VARIABLE_509)))
(define-fun ClaimedLives ((BOUND_VARIABLE_509 BoundSet)) Bool true)
(define-fun CauseHarm ((BOUND_VARIABLE_529 BoundSet) (BOUND_VARIABLE_530 BoundSet)) Bool false)
)
unsat
(error "Cannot get model unless immediately preceded by SAT/NOT_ENTAILED or UNKNOWN response.")
